Gurobi Optimizer version 9.1.2 build v9.1.2rc0 (linux64)
Thread count: 36 physical cores, 72 logical processors, using up to 32 threads
Optimize a model with 12 rows, 57 columns and 590 nonzeros
Model fingerprint: 0xf32eec78
Model has 47 quadratic constraints
Coefficient statistics:
  Matrix range     [2e-05, 3e+00]
  QMatrix range    [1e+00, 1e+00]
  QLMatrix range   [1e+00, 1e+00]
  Objective range  [8e-03, 7e-01]
  Bounds range     [1e+00, 1e+00]
  RHS range        [1e+00, 1e+00]
Presolve removed 9 rows and 0 columns

Continuous model is non-convex -- solving as a MIP.

Presolve removed 9 rows and 0 columns
Presolve time: 0.00s
Presolved: 189 rows, 57 columns, 443 nonzeros
Presolved model has 47 bilinear constraint(s)
Variable types: 57 continuous, 0 integer (0 binary)

Root relaxation: objective -1.743721e+00, 44 iterations, 0.00 seconds

    Nodes    |    Current Node    |     Objective Bounds      |     Work
 Expl Unexpl |  Obj  Depth IntInf | Incumbent    BestBd   Gap | It/Node Time

     0     0   -1.74372    0   38          -   -1.74372      -     -    0s
H    0     0                       0.6147548   -1.74372   384%     -    0s
     0     0   -1.64739    0    1    0.61475   -1.64739   368%     -    0s
H    0     0                      -1.6450460   -1.64739  0.14%     -    0s
     0     0     cutoff    0        -1.64505   -1.64505  0.00%     -    0s

Cutting planes:
  RLT: 25
  BQP: 3

Explored 1 nodes (76 simplex iterations) in 0.01 seconds
Thread count was 32 (of 72 available processors)

Solution count 2: -1.64505 0.614755 
No other solutions better than -1.64505

Optimal solution found (tolerance 1.00e-04)
Best objective -1.645045978473e+00, best bound -1.645045978473e+00, gap 0.0000%

User-callback calls 78, time in user-callback 0.00 sec
Gurobi Optimizer version 9.1.2 build v9.1.2rc0 (linux64)
Thread count: 36 physical cores, 72 logical processors, using up to 32 threads
Optimize a model with 12 rows, 55 columns and 570 nonzeros
Model fingerprint: 0xf0184c6a
Model has 45 quadratic constraints
Coefficient statistics:
  Matrix range     [1e-04, 1e+00]
  QMatrix range    [1e+00, 1e+00]
  QLMatrix range   [1e+00, 1e+00]
  Objective range  [4e-02, 7e-01]
  Bounds range     [1e+00, 1e+00]
  RHS range        [1e+00, 1e+00]
Presolve removed 9 rows and 0 columns

Continuous model is non-convex -- solving as a MIP.

Presolve removed 9 rows and 0 columns
Presolve time: 0.00s
Presolved: 183 rows, 55 columns, 432 nonzeros
Presolved model has 45 bilinear constraint(s)
Variable types: 55 continuous, 0 integer (0 binary)

Root relaxation: objective -3.278106e+00, 41 iterations, 0.00 seconds

    Nodes    |    Current Node    |     Objective Bounds      |     Work
 Expl Unexpl |  Obj  Depth IntInf | Incumbent    BestBd   Gap | It/Node Time

     0     0   -3.27811    0   10          -   -3.27811      -     -    0s
H    0     0                      -3.1126591   -3.27811  5.32%     -    0s
     0     0   -3.19534    0   28   -3.11266   -3.19534  2.66%     -    0s
     0     0   -3.19045    0    3   -3.11266   -3.19045  2.50%     -    0s
H    0     0                      -3.1823412   -3.19045  0.25%     -    0s
     0     0   -3.18618    0    3   -3.18234   -3.18618  0.12%     -    0s
     0     0   -3.18618    0    3   -3.18234   -3.18618  0.12%     -    0s
H    0     0                      -3.1850891   -3.18618  0.03%     -    0s
H    0     0                      -3.1851302   -3.18618  0.03%     -    0s
H    0     0                      -3.1851416   -3.18618  0.03%     -    0s
     0     2   -3.18618    0    3   -3.18514   -3.18618  0.03%     -    0s
*   15    20               4      -3.1853595   -3.18571  0.01%   4.1    0s
*   25    20               4      -3.1855618   -3.18558  0.00%   4.6    0s

Cutting planes:
  RLT: 14
  BQP: 4

Explored 27 nodes (210 simplex iterations) in 0.05 seconds
Thread count was 32 (of 72 available processors)

Solution count 7: -3.18556 -3.18536 -3.18514 ... -3.11266

Optimal solution found (tolerance 1.00e-04)
Best objective -3.185561812761e+00, best bound -3.185579173182e+00, gap 0.0005%

User-callback calls 165, time in user-callback 0.00 sec



objective value: -3.1855618127609326
objective bound: -3.1855791731819463
x_opt: [1.0, 1.0, 0.9136253969959092, 0.11091348455239736, 0.0, 1.0, 0.11177501346152015, 1.0, 1.0, 1.0]
GUROBI solution time: 0.0460820198059082

